NAME : local_4
TYPE : ATSP
DIMENSION : 14
EDGE_WEIGHT_TYPE : EXPLICIT
EDGE_WEIGHT_FORMAT : FULL_MATRIX
EDGE_WEIGHT_SECTION
0 597 391 567 912 648 1052 479 860 841 794 683 460 902 
0 0 438 458 10000000 858 10000000 10000000 10000000 10000000 10000000 10000000 10000000 346 
0 438 0 177 808 488 10000000 816 10000000 888 10000000 10000000 683 779 
0 458 177 0 836 497 10000000 984 10000000 965 10000000 10000000 830 772 
0 10000000 808 836 0 339 10000000 950 10000000 310 10000000 10000000 709 10000000 
0 858 488 497 339 0 10000000 851 10000000 525 10000000 10000000 656 10000000 
0 10000000 10000000 10000000 10000000 10000000 0 1012 245 10000000 238 443 10000000 10000000 
0 10000000 816 984 951 851 1043 0 785 704 840 605 268 10000000 
0 10000000 10000000 10000000 10000000 10000000 245 785 0 10000000 208 222 1015 10000000 
0 10000000 888 965 310 525 10000000 704 10000000 0 10000000 10000000 519 10000000 
0 10000000 10000000 10000000 10000000 10000000 238 840 208 10000000 0 286 1078 10000000 
0 10000000 10000000 10000000 10000000 10000000 443 605 222 10000000 286 0 800 10000000 
0 10000000 683 830 709 656 10000000 268 991 519 1057 800 0 10000000 
0 10000000 10000000 10000000 10000000 10000000 10000000 10000000 10000000 10000000 10000000 10000000 10000000 0 
EOF